<number of tasks>
20

<cycle time>
1000

<order strength>
0,221


<task times>
1 319
2 83
3 362
4 130
5 216
6 145
7 76
8 125
9 137
10 171
11 48
12 341
13 75
14 311
15 66
16 248
17 430
18 486
19 117
20 390

<precedence relations>
1,8
2,8
3,8
4,8
5,10
6,11
7,9
8,12
8,13
8,14
8,15
10,17
11,16
17,18
18,19
18,20

<end>
